0	0	28
1	0	47
2	0	23
3	0	39
4	0	50

0	1	34
1	1	50
2	1	11
3	1	9
4	1	22

0	2	34
1	2	8
2	2	53
3	2	19
4	2	16

0	3	44
1	3	1
2	3	29
3	3	16
4	3	22

0	4	33
1	4	2
2	4	45
3	4	52
4	4	14

0	5	13
1	5	3
2	5	50
3	5	2
4	5	8

0	6	29
1	6	46
2	6	5
3	6	43
4	6	10

0	7	46
1	7	52
2	7	11
3	7	18
4	7	11

0	8	23
1	8	9
2	8	4
3	8	45
4	8	29

0	9	37
1	9	40
2	9	22
3	9	34
4	9	47

0	10	2
1	10	38
2	10	30
3	10	32
4	10	52

0	11	8
1	11	39
2	11	39
3	11	39
4	11	53

0	12	43
1	12	8
2	12	4
3	12	27
4	12	2

0	13	17
1	13	53
2	13	46
3	13	5
4	13	19

0	14	10
1	14	52
2	14	42
3	14	37
4	14	0

0	15	12
1	15	24
2	15	13
3	15	42
4	15	38

0	16	27
1	16	42
2	16	28
3	16	26
4	16	1

0	17	42
1	17	23
2	17	37
3	17	41
4	17	9

0	18	40
1	18	29
2	18	19
3	18	8
4	18	27

0	19	14
1	19	3
2	19	34
3	19	38
4	19	17

0	20	26
1	20	29
2	20	17
3	20	27
4	20	35

0	21	17
1	21	52
2	21	39
3	21	36
4	21	37

0	22	35
1	22	35
2	22	44
3	22	5
4	22	6

0	23	11
1	23	16
2	23	23
3	23	52
4	23	0

0	24	43
1	24	35
2	24	14
3	24	1
4	24	46

0	25	1
1	25	4
2	25	13
3	25	19
4	25	21

0	26	23
1	26	33
2	26	41
3	26	21
4	26	43

0	27	38
1	27	0
2	27	52
3	27	33
4	27	43

0	28	18
1	28	32
2	28	19
3	28	8
4	28	27

0	29	33
1	29	26
2	29	16
3	29	21
4	29	4

0	30	43
1	30	39
2	30	51
3	30	11
4	30	35

0	31	37
1	31	42
2	31	24
3	31	25
4	31	34

0	32	32
1	32	33
2	32	32
3	32	30
4	32	35

0	33	49
1	33	24
2	33	9
3	33	26
4	33	32

0	34	36
1	34	34
2	34	37
3	34	6
4	34	53

0	35	42
1	35	17
2	35	22
3	35	40
4	35	20

0	36	0
1	36	20
2	36	43
3	36	38
4	36	23

0	37	0
1	37	33
2	37	10
3	37	18
4	37	33

0	38	32
1	38	46
2	38	45
3	38	24
4	38	27

0	39	41
1	39	5
2	39	14
3	39	47
4	39	6

0	40	3
1	40	35
2	40	0
3	40	43
4	40	32

0	41	9
1	41	7
2	41	42
3	41	2
4	41	36

0	42	50
1	42	44
2	42	13
3	42	41
4	42	37

0	43	32
1	43	47
2	43	28
3	43	46
4	43	38

0	44	24
1	44	0
2	44	5
3	44	27
4	44	51

0	45	0
1	45	19
2	45	17
3	45	45
4	45	6

0	46	52
1	46	36
2	46	35
3	46	24
4	46	14

0	47	47
1	47	14
2	47	45
3	47	27
4	47	40

0	48	15
1	48	30
2	48	47
3	48	42
4	48	4

0	49	6
1	49	29
2	49	21
3	49	52
4	49	5

0	50	14
1	50	10
2	50	42
3	50	31
4	50	24

0	51	13
1	51	35
2	51	52
3	51	33
4	51	15

0	52	26
1	52	18
2	52	22
3	52	16
4	52	39

0	53	52
1	53	20
2	53	35
3	53	26
4	53	25

0	54	11
1	54	4
2	54	15
3	54	33
4	54	8

0	55	34
1	55	10
2	55	30
3	55	38
4	55	31

0	56	1
1	56	12
2	56	40
3	56	10
4	56	0

0	57	18
1	57	5
2	57	11
3	57	49
4	57	28

0	58	19
1	58	15
2	58	5
3	58	23
4	58	6

0	59	32
1	59	31
2	59	34
3	59	42
4	59	53

0	60	48
1	60	23
2	60	23
3	60	21
4	60	48

0	61	6
1	61	28
2	61	18
3	61	16
4	61	46

0	62	45
1	62	26
2	62	9
3	62	40
4	62	32

0	63	53
1	63	47
2	63	50
3	63	46
4	63	37

0	64	53
1	64	16
2	64	44
3	64	45
4	64	35

0	65	46
1	65	1
2	65	3
3	65	40
4	65	13

0	66	18
1	66	20
2	66	2
3	66	20
4	66	42

0	67	26
1	67	11
2	67	14
3	67	28
4	67	30

0	68	30
1	68	1
2	68	42
3	68	31
4	68	3

0	69	14
1	69	36
2	69	51
3	69	48
4	69	4

0	70	25
1	70	28
2	70	20
3	70	2
4	70	34

0	71	30
1	71	21
2	71	50
3	71	52
4	71	51

0	72	36
1	72	19
2	72	1
3	72	36
4	72	24

0	73	35
1	73	13
2	73	47
3	73	53
4	73	32

0	74	20
1	74	38
2	74	35
3	74	49
4	74	18

0	75	43
1	75	43
2	75	16
3	75	23
4	75	26

0	76	16
1	76	17
2	76	14
3	76	43
4	76	9

0	77	38
1	77	20
2	77	25
3	77	19
4	77	6

0	78	23
1	78	23
2	78	22
3	78	23
4	78	46

0	79	19
1	79	44
2	79	35
3	79	11
4	79	16

0	80	40
1	80	41
2	80	33
3	80	42
4	80	13

0	81	30
1	81	20
2	81	52
3	81	45
4	81	46

0	82	19
1	82	23
2	82	46
3	82	29
4	82	31

0	83	46
1	83	19
2	83	31
3	83	2
4	83	14

0	84	44
1	84	47
2	84	7
3	84	16
4	84	37

0	85	4
1	85	21
2	85	27
3	85	35
4	85	17

0	86	11
1	86	43
2	86	43
3	86	14
4	86	36

0	87	40
1	87	23
2	87	12
3	87	32
4	87	9

0	88	23
1	88	20
2	88	19
3	88	21
4	88	37

0	89	26
1	89	44
2	89	1
3	89	48
4	89	33

0	90	3
1	90	1
2	90	34
3	90	11
4	90	3

0	91	36
1	91	9
2	91	40
3	91	49
4	91	35

0	92	38
1	92	19
2	92	17
3	92	53
4	92	2

0	93	44
1	93	28
2	93	2
3	93	2
4	93	47

0	94	36
1	94	48
2	94	48
3	94	21
4	94	28

0	95	28
1	95	45
2	95	16
3	95	39
4	95	11

0	96	43
1	96	29
2	96	27
3	96	17
4	96	3

0	97	46
1	97	42
2	97	17
3	97	47
4	97	27

0	98	49
1	98	50
2	98	52
3	98	52
4	98	43

0	99	29
1	99	15
2	99	42
3	99	40
4	99	42

0	100	45
1	100	27
2	100	26
3	100	4
4	100	30

0	101	49
1	101	20
2	101	40
3	101	32
4	101	19

0	102	5
1	102	39
2	102	18
3	102	3
4	102	11

0	103	12
1	103	4
2	103	2
3	103	36
4	103	26

0	104	19
1	104	19
2	104	48
3	104	50
4	104	1

0	105	10
1	105	15
2	105	1
3	105	34
4	105	9

0	106	20
1	106	33
2	106	22
3	106	12
4	106	45

0	107	51
1	107	25
2	107	4
3	107	37
4	107	36

0	108	5
1	108	30
2	108	37
3	108	40
4	108	24

0	109	46
1	109	39
2	109	21
3	109	7
4	109	10

0	110	37
1	110	13
2	110	37
3	110	27
4	110	50

0	111	51
1	111	39
2	111	36
3	111	15
4	111	17

0	112	8
1	112	27
2	112	30
3	112	13
4	112	7

0	113	18
1	113	44
2	113	25
3	113	31
4	113	35

0	114	13
1	114	30
2	114	38
3	114	39
4	114	8

0	115	25
1	115	26
2	115	2
3	115	25
4	115	2

0	116	14
1	116	43
2	116	53
3	116	3
4	116	39

0	117	36
1	117	48
2	117	51
3	117	52
4	117	12

0	118	9
1	118	19
2	118	4
3	118	40
4	118	32

0	119	37
1	119	36
2	119	31
3	119	53
4	119	27

0	120	41
1	120	44
2	120	14
3	120	36
4	120	16

0	121	17
1	121	37
2	121	40
3	121	35
4	121	7

0	122	0
1	122	24
2	122	12
3	122	18
4	122	29

0	123	53
1	123	9
2	123	44
3	123	42
4	123	34

0	124	2
1	124	42
2	124	51
3	124	6
4	124	30

0	125	23
1	125	30
2	125	34
3	125	36
4	125	28

0	126	44
1	126	48
2	126	52
3	126	41
4	126	4

0	127	12
1	127	9
2	127	49
3	127	26
4	127	48

0	128	25
1	128	45
2	128	36
3	128	0
4	128	50

0	129	3
1	129	24
2	129	51
3	129	24
4	129	53

0	130	35
1	130	14
2	130	10
3	130	17
4	130	10

0	131	44
1	131	26
2	131	22
3	131	52
4	131	20

0	132	4
1	132	10
2	132	44
3	132	46
4	132	34

0	133	37
1	133	40
2	133	28
3	133	44
4	133	23

0	134	49
1	134	23
2	134	33
3	134	13
4	134	33

0	135	32
1	135	51
2	135	49
3	135	28
4	135	30

0	136	50
1	136	48
2	136	2
3	136	26
4	136	20

0	137	40
1	137	45
2	137	44
3	137	21
4	137	17

0	138	38
1	138	45
2	138	18
3	138	53
4	138	17

0	139	5
1	139	25
2	139	17
3	139	50
4	139	15

0	140	16
1	140	26
2	140	48
3	140	31
4	140	5

0	141	36
1	141	13
2	141	49
3	141	22
4	141	1

0	142	7
1	142	30
2	142	27
3	142	36
4	142	26

0	143	38
1	143	47
2	143	14
3	143	39
4	143	39

0	144	21
1	144	8
2	144	21
3	144	19
4	144	48

0	145	20
1	145	17
2	145	20
3	145	45
4	145	34

0	146	52
1	146	46
2	146	15
3	146	21
4	146	40

0	147	0
1	147	39
2	147	42
3	147	51
4	147	31

0	148	33
1	148	22
2	148	0
3	148	24
4	148	0

0	149	18
1	149	20
2	149	38
3	149	3
4	149	7

0	150	47
1	150	53
2	150	25
3	150	6
4	150	32

0	151	53
1	151	2
2	151	10
3	151	20
4	151	21

0	152	14
1	152	43
2	152	48
3	152	17
4	152	24

0	153	48
1	153	34
2	153	16
3	153	35
4	153	4

0	154	5
1	154	28
2	154	43
3	154	49
4	154	17

0	155	31
1	155	22
2	155	21
3	155	33
4	155	27

0	156	42
1	156	22
2	156	22
3	156	20
4	156	50

0	157	5
1	157	19
2	157	49
3	157	36
4	157	3

0	158	25
1	158	50
2	158	9
3	158	21
4	158	24

0	159	22
1	159	46
2	159	43
3	159	28
4	159	6

0	160	6
1	160	29
2	160	12
3	160	9
4	160	30

0	161	7
1	161	42
2	161	32
3	161	47
4	161	41

0	162	43
1	162	14
2	162	24
3	162	37
4	162	2

0	163	38
1	163	36
2	163	29
3	163	53
4	163	44

0	164	8
1	164	32
2	164	5
3	164	7
4	164	14

0	165	15
1	165	53
2	165	32
3	165	15
4	165	38

0	166	19
1	166	12
2	166	28
3	166	18
4	166	39

0	167	51
1	167	2
2	167	29
3	167	39
4	167	21

0	168	53
1	168	33
2	168	0
3	168	46
4	168	46

0	169	16
1	169	51
2	169	33
3	169	48
4	169	45

0	170	39
1	170	21
2	170	10
3	170	17
4	170	13

0	171	8
1	171	45
2	171	16
3	171	29
4	171	1

0	172	10
1	172	0
2	172	41
3	172	23
4	172	31

0	173	46
1	173	46
2	173	6
3	173	41
4	173	26

0	174	36
1	174	42
2	174	53
3	174	51
4	174	2

0	175	51
1	175	28
2	175	5
3	175	7
4	175	25

0	176	14
1	176	47
2	176	44
3	176	49
4	176	30

0	177	5
1	177	9
2	177	15
3	177	46
4	177	40

0	178	36
1	178	15
2	178	43
3	178	3
4	178	34

0	179	43
1	179	11
2	179	11
3	179	38
4	179	44

0	180	18
1	180	46
2	180	48
3	180	22
4	180	12

0	181	25
1	181	3
2	181	45
3	181	34
4	181	7

0	182	33
1	182	52
2	182	24
3	182	18
4	182	29

0	183	16
1	183	47
2	183	2
3	183	37
4	183	36

0	184	36
1	184	27
2	184	19
3	184	6
4	184	16

0	185	11
1	185	52
2	185	45
3	185	29
4	185	41

0	186	35
1	186	8
2	186	36
3	186	19
4	186	10

0	187	28
1	187	16
2	187	11
3	187	42
4	187	7

0	188	28
1	188	8
2	188	1
3	188	31
4	188	17

0	189	25
1	189	25
2	189	6
3	189	36
4	189	29

0	190	25
1	190	20
2	190	37
3	190	21
4	190	48

0	191	39
1	191	32
2	191	25
3	191	50
4	191	4

0	192	16
1	192	1
2	192	32
3	192	15
4	192	35

0	193	50
1	193	40
2	193	42
3	193	16
4	193	27

0	194	38
1	194	16
2	194	24
3	194	7
4	194	8

0	195	0
1	195	34
2	195	51
3	195	27
4	195	47

0	196	34
1	196	49
2	196	9
3	196	48
4	196	17

0	197	45
1	197	49
2	197	52
3	197	23
4	197	12

0	198	19
1	198	41
2	198	7
3	198	38
4	198	37

0	199	24
1	199	15
2	199	36
3	199	28
4	199	30

0	200	21
1	200	46
2	200	41
3	200	6
4	200	19

0	201	17
1	201	0
2	201	13
3	201	19
4	201	9

0	202	13
1	202	7
2	202	36
3	202	48
4	202	33

0	203	12
1	203	38
2	203	9
3	203	28
4	203	11

0	204	41
1	204	2
2	204	4
3	204	34
4	204	39

0	205	50
1	205	34
2	205	30
3	205	11
4	205	38

0	206	28
1	206	30
2	206	6
3	206	44
4	206	26

0	207	47
1	207	35
2	207	15
3	207	50
4	207	16

0	208	45
1	208	1
2	208	10
3	208	36
4	208	17

0	209	8
1	209	0
2	209	11
3	209	49
4	209	14

0	210	7
1	210	42
2	210	14
3	210	46
4	210	3

0	211	29
1	211	44
2	211	29
3	211	1
4	211	2

0	212	35
1	212	53
2	212	48
3	212	28
4	212	32

0	213	0
1	213	13
2	213	31
3	213	7
4	213	36

0	214	27
1	214	37
2	214	36
3	214	25
4	214	50

0	215	9
1	215	24
2	215	33
3	215	4
4	215	46

0	216	15
1	216	20
2	216	39
3	216	0
4	216	15

0	217	14
1	217	12
2	217	12
3	217	52
4	217	27

0	218	26
1	218	32
2	218	13
3	218	28
4	218	51

0	219	5
1	219	18
2	219	25
3	219	24
4	219	39

0	220	10
1	220	30
2	220	8
3	220	15
4	220	17

0	221	48
1	221	42
2	221	46
3	221	42
4	221	12

0	222	9
1	222	36
2	222	33
3	222	39
4	222	33

0	223	35
1	223	19
2	223	52
3	223	27
4	223	36

0	224	6
1	224	3
2	224	36
3	224	43
4	224	10

0	225	3
1	225	35
2	225	40
3	225	30
4	225	40

0	226	26
1	226	13
2	226	13
3	226	6
4	226	25

0	227	9
1	227	32
2	227	10
3	227	46
4	227	33

0	228	52
1	228	31
2	228	30
3	228	21
4	228	48

0	229	53
1	229	26
2	229	23
3	229	45
4	229	29

0	230	53
1	230	34
2	230	29
3	230	34
4	230	26

0	231	44
1	231	13
2	231	7
3	231	23
4	231	14

0	232	26
1	232	18
2	232	43
3	232	33
4	232	50

0	233	30
1	233	35
2	233	53
3	233	28
4	233	53

0	234	51
1	234	9
2	234	39
3	234	51
4	234	22

0	235	37
1	235	1
2	235	5
3	235	6
4	235	38

0	236	31
1	236	37
2	236	34
3	236	35
4	236	9

0	237	45
1	237	26
2	237	44
3	237	2
4	237	39

0	238	18
1	238	51
2	238	18
3	238	50
4	238	14

0	239	23
1	239	43
2	239	52
3	239	33
4	239	49

0	240	1
1	240	11
2	240	41
3	240	13
4	240	3

0	241	25
1	241	1
2	241	6
3	241	41
4	241	37

0	242	40
1	242	32
2	242	32
3	242	28
4	242	30

0	243	39
1	243	25
2	243	14
3	243	36
4	243	49

0	244	34
1	244	17
2	244	25
3	244	29
4	244	43

0	245	36
1	245	8
2	245	45
3	245	18
4	245	2

0	246	28
1	246	12
2	246	53
3	246	0
4	246	29

0	247	19
1	247	18
2	247	0
3	247	11
4	247	13

0	248	26
1	248	51
2	248	15
3	248	21
4	248	47

0	249	37
1	249	43
2	249	41
3	249	3
4	249	31

0	250	6
1	250	48
2	250	16
3	250	52
4	250	42

0	251	13
1	251	1
2	251	35
3	251	38
4	251	29

0	252	35
1	252	45
2	252	8
3	252	51
4	252	51

0	253	19
1	253	43
2	253	6
3	253	19
4	253	33

0	254	47
1	254	11
2	254	3
3	254	40
4	254	17

0	255	32
1	255	36
2	255	11
3	255	42
4	255	9

0	256	20
1	256	31
2	256	15
3	256	15
4	256	30

0	257	39
1	257	34
2	257	46
3	257	44
4	257	12

0	258	24
1	258	8
2	258	13
3	258	47
4	258	47

0	259	14
1	259	50
2	259	36
3	259	9
4	259	53

0	260	50
1	260	9
2	260	23
3	260	12
4	260	35

0	261	30
1	261	41
2	261	42
3	261	8
4	261	38

0	262	12
1	262	40
2	262	38
3	262	6
4	262	45

0	263	42
1	263	14
2	263	41
3	263	34
4	263	13

0	264	9
1	264	39
2	264	26
3	264	27
4	264	23

0	265	51
1	265	6
2	265	40
3	265	13
4	265	37

0	266	27
1	266	16
2	266	43
3	266	26
4	266	22

0	267	2
1	267	2
2	267	33
3	267	1
4	267	7

0	268	29
1	268	29
2	268	22
3	268	52
4	268	35

0	269	22
1	269	39
2	269	17
3	269	41
4	269	44

0	270	15
1	270	1
2	270	42
3	270	32
4	270	3

0	271	36
1	271	7
2	271	0
3	271	19
4	271	30

0	272	16
1	272	41
2	272	6
3	272	46
4	272	10

0	273	13
1	273	2
2	273	5
3	273	14
4	273	40

0	274	10
1	274	14
2	274	24
3	274	38
4	274	24

0	275	41
1	275	32
2	275	19
3	275	3
4	275	27

0	276	20
1	276	39
2	276	2
3	276	20
4	276	29

0	277	52
1	277	18
2	277	14
3	277	11
4	277	20

0	278	8
1	278	28
2	278	7
3	278	40
4	278	32

0	279	46
1	279	29
2	279	36
3	279	22
4	279	38

0	280	22
1	280	28
2	280	50
3	280	48
4	280	41

0	281	10
1	281	43
2	281	6
3	281	32
4	281	6

0	282	7
1	282	34
2	282	44
3	282	29
4	282	1

0	283	8
1	283	19
2	283	20
3	283	13
4	283	4

0	284	34
1	284	47
2	284	1
3	284	38
4	284	48

0	285	30
1	285	43
2	285	42
3	285	36
4	285	18

0	286	16
1	286	52
2	286	49
3	286	39
4	286	44

0	287	18
1	287	4
2	287	27
3	287	28
4	287	46

0	288	11
1	288	34
2	288	32
3	288	16
4	288	27

0	289	6
1	289	22
2	289	24
3	289	14
4	289	19

0	290	32
1	290	41
2	290	44
3	290	11
4	290	16

0	291	11
1	291	38
2	291	36
3	291	48
4	291	24

0	292	7
1	292	28
2	292	4
3	292	37
4	292	6

0	293	44
1	293	30
2	293	50
3	293	9
4	293	19

0	294	52
1	294	32
2	294	37
3	294	8
4	294	15

0	295	13
1	295	7
2	295	40
3	295	25
4	295	43

0	296	35
1	296	8
2	296	31
3	296	18
4	296	25

0	297	28
1	297	49
2	297	17
3	297	30
4	297	38

0	298	0
1	298	31
2	298	28
3	298	42
4	298	0

0	299	27
1	299	48
2	299	34
3	299	22
4	299	52

0	300	42
1	300	26
2	300	3
3	300	15
4	300	11

0	301	5
1	301	21
2	301	51
3	301	29
4	301	46

0	302	41
1	302	10
2	302	36
3	302	44
4	302	26

0	303	33
1	303	35
2	303	16
3	303	18
4	303	37

0	304	15
1	304	26
2	304	33
3	304	2
4	304	5

0	305	2
1	305	25
2	305	31
3	305	13
4	305	23

0	306	47
1	306	22
2	306	43
3	306	44
4	306	49

0	307	33
1	307	25
2	307	5
3	307	19
4	307	15

0	308	17
1	308	48
2	308	5
3	308	43
4	308	52

0	309	43
1	309	31
2	309	25
3	309	52
4	309	50

0	310	20
1	310	20
2	310	20
3	310	24
4	310	42

0	311	46
1	311	47
2	311	23
3	311	28
4	311	15

0	312	36
1	312	1
2	312	13
3	312	13
4	312	31

0	313	37
1	313	20
2	313	31
3	313	47
4	313	39

0	314	4
1	314	18
2	314	53
3	314	6
4	314	14

0	315	5
1	315	52
2	315	18
3	315	10
4	315	34

0	316	17
1	316	41
2	316	10
3	316	50
4	316	8

0	317	1
1	317	53
2	317	29
3	317	17
4	317	36

0	318	51
1	318	3
2	318	18
3	318	20
4	318	41

0	319	26
1	319	0
2	319	50
3	319	11
4	319	52

0	320	25
1	320	5
2	320	32
3	320	19
4	320	24

0	321	5
1	321	12
2	321	22
3	321	37
4	321	23

0	322	40
1	322	36
2	322	10
3	322	33
4	322	46

0	323	14
1	323	18
2	323	29
3	323	21
4	323	36

0	324	52
1	324	25
2	324	5
3	324	49
4	324	15

0	325	42
1	325	19
2	325	30
3	325	52
4	325	39

0	326	39
1	326	35
2	326	35
3	326	46
4	326	52

0	327	48
1	327	1
2	327	25
3	327	4
4	327	12

0	328	4
1	328	34
2	328	1
3	328	13
4	328	39

0	329	18
1	329	25
2	329	29
3	329	1
4	329	49

0	330	25
1	330	22
2	330	14
3	330	37
4	330	51

0	331	45
1	331	14
2	331	16
3	331	9
4	331	37

0	332	44
1	332	44
2	332	41
3	332	6
4	332	10

0	333	31
1	333	5
2	333	21
3	333	37
4	333	14

0	334	41
1	334	12
2	334	2
3	334	52
4	334	36

0	335	16
1	335	22
2	335	38
3	335	16
4	335	1

0	336	42
1	336	0
2	336	40
3	336	33
4	336	9

0	337	38
1	337	47
2	337	18
3	337	37
4	337	26

0	338	14
1	338	15
2	338	13
3	338	13
4	338	42

0	339	15
1	339	10
2	339	19
3	339	18
4	339	5

0	340	36
1	340	48
2	340	17
3	340	4
4	340	23

0	341	8
1	341	16
2	341	6
3	341	50
4	341	46

0	342	18
1	342	18
2	342	50
3	342	29
4	342	35

0	343	23
1	343	41
2	343	0
3	343	43
4	343	11

0	344	38
1	344	19
2	344	42
3	344	13
4	344	16

0	345	24
1	345	3
2	345	31
3	345	8
4	345	48

0	346	17
1	346	35
2	346	25
3	346	9
4	346	40

0	347	43
1	347	31
2	347	15
3	347	33
4	347	47

0	348	9
1	348	37
2	348	4
3	348	32
4	348	43

0	349	7
1	349	20
2	349	30
3	349	47
4	349	20

0	350	20
1	350	28
2	350	39
3	350	37
4	350	48

0	351	32
1	351	52
2	351	6
3	351	24
4	351	6

0	352	3
1	352	21
2	352	37
3	352	37
4	352	41

0	353	11
1	353	31
2	353	53
3	353	52
4	353	33

0	354	25
1	354	53
2	354	9
3	354	41
4	354	24

0	355	44
1	355	29
2	355	38
3	355	4
4	355	45

0	356	53
1	356	3
2	356	16
3	356	8
4	356	2

0	357	43
1	357	13
2	357	39
3	357	44
4	357	28

0	358	28
1	358	17
2	358	43
3	358	47
4	358	34

0	359	48
1	359	50
2	359	48
3	359	14
4	359	38

0	360	41
1	360	30
2	360	2
3	360	20
4	360	14

0	361	45
1	361	39
2	361	26
3	361	7
4	361	38

0	362	37
1	362	3
2	362	31
3	362	40
4	362	42

0	363	47
1	363	33
2	363	27
3	363	43
4	363	5

0	364	42
1	364	38
2	364	28
3	364	16
4	364	19

0	365	21
1	365	14
2	365	33
3	365	10
4	365	30

0	366	49
1	366	8
2	366	29
3	366	5
4	366	17

0	367	51
1	367	26
2	367	14
3	367	21
4	367	37

0	368	1
1	368	13
2	368	43
3	368	19
4	368	16

0	369	26
1	369	9
2	369	40
3	369	30
4	369	10

0	370	18
1	370	39
2	370	36
3	370	2
4	370	29

0	371	19
1	371	25
2	371	44
3	371	39
4	371	26

0	372	53
1	372	11
2	372	52
3	372	11
4	372	11

0	373	42
1	373	52
2	373	11
3	373	20
4	373	9

0	374	43
1	374	16
2	374	31
3	374	40
4	374	33

0	375	22
1	375	24
2	375	20
3	375	5
4	375	48

0	376	4
1	376	38
2	376	49
3	376	35
4	376	10

0	377	14
1	377	39
2	377	29
3	377	25
4	377	4

0	378	3
1	378	48
2	378	53
3	378	6
4	378	29

0	379	44
1	379	32
2	379	11
3	379	30
4	379	40

0	380	34
1	380	43
2	380	34
3	380	31
4	380	32

0	381	12
1	381	17
2	381	37
3	381	16
4	381	53

0	382	50
1	382	4
2	382	44
3	382	45
4	382	5

0	383	40
1	383	48
2	383	21
3	383	3
4	383	41

0	384	6
1	384	53
2	384	50
3	384	44
4	384	48

0	385	47
1	385	30
2	385	32
3	385	1
4	385	30

0	386	4
1	386	3
2	386	51
3	386	43
4	386	23

0	387	42
1	387	41
2	387	10
3	387	12
4	387	25

0	388	47
1	388	52
2	388	5
3	388	17
4	388	29

0	389	46
1	389	1
2	389	33
3	389	32
4	389	32

0	390	41
1	390	44
2	390	26
3	390	10
4	390	13

0	391	45
1	391	30
2	391	42
3	391	48
4	391	44

0	392	20
1	392	35
2	392	9
3	392	42
4	392	1

0	393	14
1	393	21
2	393	41
3	393	12
4	393	0

0	394	37
1	394	43
2	394	2
3	394	35
4	394	9

0	395	14
1	395	29
2	395	5
3	395	51
4	395	27

0	396	47
1	396	28
2	396	27
3	396	20
4	396	51

0	397	6
1	397	41
2	397	9
3	397	0
4	397	37

0	398	52
1	398	53
2	398	23
3	398	15
4	398	7

0	399	41
1	399	33
2	399	19
3	399	12
4	399	18

0	400	45
1	400	20
2	400	25
3	400	3
4	400	6

0	401	25
1	401	18
2	401	47
3	401	28
4	401	7

0	402	19
1	402	21
2	402	27
3	402	13
4	402	20

0	403	23
1	403	6
2	403	5
3	403	38
4	403	13

0	404	6
1	404	17
2	404	6
3	404	51
4	404	12

0	405	49
1	405	4
2	405	12
3	405	10
4	405	2

0	406	5
1	406	38
2	406	4
3	406	32
4	406	49

0	407	18
1	407	45
2	407	18
3	407	23
4	407	9

0	408	8
1	408	46
2	408	44
3	408	28
4	408	41

0	409	53
1	409	50
2	409	29
3	409	16
4	409	21

0	410	47
1	410	47
2	410	37
3	410	35
4	410	26

0	411	25
1	411	11
2	411	38
3	411	8
4	411	35

0	412	16
1	412	23
2	412	34
3	412	50
4	412	15

0	413	45
1	413	51
2	413	45
3	413	17
4	413	1

0	414	35
1	414	52
2	414	1
3	414	44
4	414	32

0	415	10
1	415	28
2	415	16
3	415	26
4	415	51

0	416	51
1	416	44
2	416	49
3	416	41
4	416	37

0	417	6
1	417	19
2	417	7
3	417	8
4	417	18

0	418	33
1	418	36
2	418	20
3	418	24
4	418	24

0	419	50
1	419	25
2	419	0
3	419	16
4	419	43

0	420	11
1	420	28
2	420	43
3	420	26
4	420	45

0	421	46
1	421	13
2	421	25
3	421	38
4	421	24

0	422	15
1	422	48
2	422	1
3	422	7
4	422	7

0	423	44
1	423	34
2	423	19
3	423	0
4	423	18

0	424	1
1	424	7
2	424	34
3	424	15
4	424	27

0	425	31
1	425	37
2	425	26
3	425	4
4	425	44

0	426	31
1	426	37
2	426	26
3	426	4
4	426	44

0	427	21
1	427	37
2	427	31
3	427	4
4	427	21

0	428	25
1	428	11
2	428	30
3	428	47
4	428	19

0	429	41
1	429	31
2	429	0
3	429	19
4	429	26

0	430	49
1	430	44
2	430	45
3	430	0
4	430	6

0	431	5
1	431	28
2	431	51
3	431	40
4	431	14

0	432	32
1	432	50
2	432	15
3	432	22
4	432	22

0	433	9
1	433	30
2	433	28
3	433	53
4	433	16

0	434	12
1	434	9
2	434	6
3	434	10
4	434	12

0	435	0
1	435	27
2	435	22
3	435	13
4	435	48

0	436	32
1	436	17
2	436	12
3	436	10
4	436	18

0	437	47
1	437	51
2	437	49
3	437	41
4	437	47

0	438	42
1	438	4
2	438	53
3	438	37
4	438	5

0	439	7
1	439	12
2	439	33
3	439	48
4	439	0

0	440	27
1	440	13
2	440	31
3	440	5
4	440	52

0	441	49
1	441	36
2	441	47
3	441	11
4	441	31

0	442	9
1	442	22
2	442	37
3	442	50
4	442	28

0	443	26
1	443	42
2	443	38
3	443	44
4	443	40

0	444	36
1	444	0
2	444	8
3	444	1
4	444	51

0	445	35
1	445	34
2	445	32
3	445	9
4	445	13

0	446	22
1	446	16
2	446	21
3	446	51
4	446	41

0	447	26
1	447	30
2	447	38
3	447	17
4	447	33

0	448	48
1	448	15
2	448	37
3	448	32
4	448	43

0	449	0
1	449	6
2	449	46
3	449	8
4	449	49

0	450	39
1	450	5
2	450	36
3	450	35
4	450	42

0	451	21
1	451	45
2	451	16
3	451	27
4	451	10

0	452	43
1	452	37
2	452	25
3	452	51
4	452	15

0	453	30
1	453	14
2	453	6
3	453	33
4	453	45

0	454	3
1	454	22
2	454	35
3	454	40
4	454	50

0	455	28
1	455	32
2	455	22
3	455	30
4	455	38

0	456	51
1	456	35
2	456	5
3	456	29
4	456	32

0	457	29
1	457	33
2	457	16
3	457	25
4	457	7

0	458	36
1	458	18
2	458	52
3	458	20
4	458	36

0	459	2
1	459	14
2	459	35
3	459	47
4	459	28

0	460	36
1	460	47
2	460	53
3	460	31
4	460	45

0	461	5
1	461	28
2	461	10
3	461	22
4	461	49

0	462	6
1	462	6
2	462	50
3	462	9
4	462	40

0	463	24
1	463	10
2	463	31
3	463	28
4	463	39

0	464	43
1	464	18
2	464	13
3	464	4
4	464	7

0	465	49
1	465	34
2	465	6
3	465	40
4	465	4

0	466	37
1	466	5
2	466	13
3	466	8
4	466	14

0	467	21
1	467	7
2	467	7
3	467	14
4	467	42

0	468	16
1	468	47
2	468	16
3	468	25
4	468	36

0	469	8
1	469	26
2	469	24
3	469	49
4	469	52

0	470	10
1	470	50
2	470	47
3	470	11
4	470	3

0	471	5
1	471	32
2	471	51
3	471	22
4	471	42

0	472	46
1	472	24
2	472	39
3	472	46
4	472	35

0	473	18
1	473	12
2	473	28
3	473	3
4	473	25

0	474	24
1	474	27
2	474	9
3	474	34
4	474	18

0	475	34
1	475	23
2	475	3
3	475	12
4	475	46

0	476	46
1	476	16
2	476	4
3	476	25
4	476	19

0	477	45
1	477	7
2	477	27
3	477	4
4	477	50

0	478	47
1	478	50
2	478	43
3	478	17
4	478	39

0	479	10
1	479	23
2	479	19
3	479	34
4	479	15

0	480	47
1	480	26
2	480	5
3	480	1
4	480	12

0	481	17
1	481	19
2	481	34
3	481	3
4	481	11

0	482	19
1	482	53
2	482	35
3	482	50
4	482	32

0	483	22
1	483	28
2	483	21
3	483	19
4	483	35

0	484	25
1	484	15
2	484	45
3	484	43
4	484	5

0	485	28
1	485	51
2	485	29
3	485	21
4	485	18

0	486	11
1	486	11
2	486	30
3	486	16
4	486	30

0	487	45
1	487	6
2	487	18
3	487	44
4	487	19

0	488	31
1	488	19
2	488	51
3	488	53
4	488	1

0	489	22
1	489	52
2	489	41
3	489	13
4	489	33

0	490	38
1	490	8
2	490	20
3	490	2
4	490	6

0	491	52
1	491	51
2	491	5
3	491	38
4	491	2

0	492	23
1	492	18
2	492	40
3	492	9
4	492	24

0	493	43
1	493	47
2	493	30
3	493	7
4	493	11

0	494	31
1	494	6
2	494	12
3	494	21
4	494	34

0	495	32
1	495	14
2	495	13
3	495	35
4	495	36

0	496	33
1	496	40
2	496	22
3	496	47
4	496	50

0	497	9
1	497	31
2	497	16
3	497	26
4	497	27

0	498	13
1	498	23
2	498	51
3	498	37
4	498	14

0	499	20
1	499	37
2	499	29
3	499	5
4	499	48

0	500	53
1	500	12
2	500	4
3	500	22
4	500	29

0	501	18
1	501	21
2	501	18
3	501	7
4	501	4

0	502	35
1	502	2
2	502	12
3	502	36
4	502	9

0	503	20
1	503	28
2	503	37
3	503	1
4	503	47

0	504	45
1	504	18
2	504	3
3	504	51
4	504	21

0	505	51
1	505	11
2	505	46
3	505	46
4	505	16

0	506	7
1	506	40
2	506	43
3	506	6
4	506	17

0	507	0
1	507	18
2	507	48
3	507	53
4	507	21

0	508	31
1	508	14
2	508	52
3	508	5
4	508	21

0	509	24
1	509	2
2	509	32
3	509	27
4	509	12

0	510	52
1	510	16
2	510	26
3	510	1
4	510	4

0	511	21
1	511	1
2	511	24
3	511	46
4	511	34

0	512	23
1	512	29
2	512	37
3	512	29
4	512	28

0	513	10
1	513	18
2	513	22
3	513	31
4	513	34

0	514	14
1	514	12
2	514	15
3	514	7
4	514	49

0	515	39
1	515	3
2	515	36
3	515	8
4	515	4

0	516	43
1	516	32
2	516	11
3	516	26
4	516	47

0	517	7
1	517	37
2	517	7
3	517	43
4	517	51

0	518	8
1	518	23
2	518	3
3	518	51
4	518	22

0	519	18
1	519	4
2	519	18
3	519	19
4	519	23

0	520	30
1	520	15
2	520	13
3	520	38
4	520	28

0	521	3
1	521	32
2	521	47
3	521	29
4	521	46

0	522	46
1	522	11
2	522	24
3	522	23
4	522	11

0	523	18
1	523	37
2	523	45
3	523	12
4	523	3

0	524	36
1	524	42
2	524	26
3	524	13
4	524	7

0	525	13
1	525	18
2	525	0
3	525	36
4	525	40

0	526	52
1	526	26
2	526	6
3	526	9
4	526	9

0	527	38
1	527	24
2	527	53
3	527	31
4	527	43

0	528	30
1	528	27
2	528	40
3	528	22
4	528	23

0	529	30
1	529	27
2	529	40
3	529	22
4	529	23

0	530	50
1	530	15
2	530	49
3	530	43
4	530	3

0	531	47
1	531	34
2	531	42
3	531	12
4	531	42

0	532	6
1	532	6
2	532	44
3	532	8
4	532	33

0	533	7
1	533	41
2	533	2
3	533	21
4	533	37

0	534	18
1	534	38
2	534	46
3	534	0
4	534	1

0	535	38
1	535	40
2	535	38
3	535	49
4	535	6

0	536	48
1	536	51
2	536	13
3	536	24
4	536	50

0	537	27
1	537	11
2	537	50
3	537	10
4	537	11

0	538	1
1	538	39
2	538	50
3	538	52
4	538	22

0	539	40
1	539	0
2	539	39
3	539	15
4	539	32

0	540	11
1	540	51
2	540	3
3	540	13
4	540	20

0	541	38
1	541	5
2	541	48
3	541	27
4	541	28

0	542	45
1	542	6
2	542	5
3	542	32
4	542	24

0	543	28
1	543	11
2	543	13
3	543	19
4	543	51

0	544	15
1	544	22
2	544	50
3	544	35
4	544	29

0	545	27
1	545	2
2	545	37
3	545	44
4	545	45

0	546	42
1	546	20
2	546	18
3	546	13
4	546	34

0	547	19
1	547	27
2	547	9
3	547	48
4	547	43

0	548	1
1	548	21
2	548	14
3	548	5
4	548	4

0	549	48
1	549	4
2	549	27
3	549	28
4	549	19

0	550	22
1	550	40
2	550	31
3	550	34
4	550	31

0	551	17
1	551	10
2	551	11
3	551	43
4	551	18

0	552	46
1	552	33
2	552	25
3	552	10
4	552	46

0	553	29
1	553	45
2	553	22
3	553	31
4	553	2

0	554	0
1	554	7
2	554	37
3	554	25
4	554	0

0	555	6
1	555	23
2	555	41
3	555	46
4	555	5

0	556	9
1	556	45
2	556	43
3	556	4
4	556	40

0	557	48
1	557	51
2	557	22
3	557	2
4	557	10

0	558	19
1	558	8
2	558	20
3	558	14
4	558	29

0	559	52
1	559	6
2	559	4
3	559	51
4	559	30

0	560	8
1	560	52
2	560	39
3	560	12
4	560	11

0	561	46
1	561	22
2	561	10
3	561	11
4	561	16

0	562	26
1	562	3
2	562	23
3	562	23
4	562	1

0	563	50
1	563	40
2	563	11
3	563	18
4	563	2

0	564	18
1	564	37
2	564	25
3	564	14
4	564	22

0	565	5
1	565	36
2	565	21
3	565	50
4	565	31

0	566	23
1	566	30
2	566	3
3	566	17
4	566	36

0	567	21
1	567	1
2	567	47
3	567	30
4	567	44

0	568	48
1	568	50
2	568	5
3	568	30
4	568	38

0	569	37
1	569	25
2	569	53
3	569	37
4	569	32

0	570	28
1	570	0
2	570	36
3	570	44
4	570	52

0	571	43
1	571	42
2	571	0
3	571	40
4	571	16

0	572	2
1	572	26
2	572	3
3	572	42
4	572	5

0	573	22
1	573	39
2	573	4
3	573	7
4	573	53

0	574	53
1	574	38
2	574	29
3	574	30
4	574	4

0	575	49
1	575	51
2	575	11
3	575	0
4	575	22

0	576	5
1	576	13
2	576	47
3	576	3
4	576	12

0	577	15
1	577	35
2	577	19
3	577	48
4	577	27

0	578	13
1	578	10
2	578	34
3	578	12
4	578	43

0	579	44
1	579	44
2	579	33
3	579	22
4	579	41

0	580	7
1	580	12
2	580	15
3	580	1
4	580	42

0	581	18
1	581	38
2	581	45
3	581	3
4	581	44

0	582	8
1	582	23
2	582	16
3	582	30
4	582	15

0	583	1
1	583	2
2	583	24
3	583	17
4	583	23

0	584	21
1	584	49
2	584	38
3	584	31
4	584	34

0	585	44
1	585	17
2	585	10
3	585	52
4	585	51

0	586	51
1	586	43
2	586	4
3	586	49
4	586	5

0	587	11
1	587	46
2	587	44
3	587	15
4	587	36

0	588	21
1	588	11
2	588	47
3	588	18
4	588	0

0	589	29
1	589	3
2	589	44
3	589	9
4	589	6

0	590	32
1	590	14
2	590	18
3	590	47
4	590	48

0	591	47
1	591	0
2	591	51
3	591	17
4	591	36

0	592	39
1	592	25
2	592	23
3	592	15
4	592	20

0	593	10
1	593	7
2	593	33
3	593	31
4	593	45

0	594	1
1	594	29
2	594	45
3	594	19
4	594	3

0	595	24
1	595	10
2	595	10
3	595	52
4	595	20

0	596	41
1	596	15
2	596	51
3	596	22
4	596	26

0	597	42
1	597	40
2	597	35
3	597	31
4	597	25

0	598	17
1	598	32
2	598	19
3	598	6
4	598	19

0	599	50
1	599	20
2	599	36
3	599	19
4	599	33

0	600	0
1	600	14
2	600	6
3	600	26
4	600	30

0	601	35
1	601	44
2	601	27
3	601	43
4	601	39

0	602	1
1	602	9
2	602	9
3	602	41
4	602	7

0	603	1
1	603	28
2	603	17
3	603	26
4	603	38

0	604	32
1	604	41
2	604	19
3	604	53
4	604	15

0	605	17
1	605	53
2	605	5
3	605	52
4	605	10

0	606	29
1	606	52
2	606	48
3	606	35
4	606	25

